100 8
154 81
402 513
214 495
295 729
555 500
648 721
542 377
747 771
782 775
414 692
478 519
626 727
782 709
129 384
362 600
531 602
855 798
283 629
522 431
653 550
604 829
858 704
316 379
573 742
135 486
667 115
194 212
572 804
146 257
583 440
463 503
653 808
655 611
765 640
379 622
118 372
97 179
241 649
714 695
841 310
350 556
502 509
151 642
760 369
635 380
178 636
206 744
527 440
423 653
398 406
112 253
484 492
595 804
387 482
812 729
230 564
284 496
781 284
178 714
303 609
443 826
792 280
373 538
762 718
682 831
847 342
368 527
819 403
463 851
475 795
745 657
441 495
231 598
278 485
316 452
691 835
78 214
396 726
885 357
642 838
250 614
559 690
630 601
547 362
377 639
207 162
483 558
176 663
575 831
665 251
731 859
582 688
122 229
407 690
105 644
690 766
676 768
405 457
883 731
621 742
